nK = 3268;
nT = 8;
nI = 21;
L = 29;
TT = 697;
np = 1;
nc = 3;
b = [49, 54, 20, 26, 39, 64, 41, 60, 61, 21, 48, 25, 50, 50, 27, 51, 21, 48, 63, 49, 46];
d = [103, 119, 81, 124, 125, 130, 78, 121, 98, 48, 104, 143, 117, 86, 104, 117, 113, 148, 117, 111, 125];
m = [1.2, 1.7, 1.5, 2.5, 1.3, 1.6, 2.5, 2.4, 2.5, 1.8, 2, 1.1, 1.8, 2.4, 2.1, 1, 1.5, 2, 1.5, 2.2, 1.1];
pt = [0.29, 0.3, 0.23, 0.35, 0.28, 0.21, 0.24, 0.22];
st = [13.34, 14.7, 9.66, 18.55, 11.2, 10.71, 12.48, 12.76];
arc = {<1, 0, 1, 1, 0, 0, 0, [1, 1, 1, 1, 1, 1, 1, 1]>, <2, 1, 2, 1, 0, 0, 0, [1, 1, 1, 1, 1, 1, 1, 1]>, <3, 2, 3, 1, 0, 0, 0, [1, 1, 1, 1, 1, 1, 1, 1]>, <4, 3, 4, 1, 0, 0, 0, [1, 1, 1, 1, 1, 1, 1, 1]>, <5, 4, 5, 1, 0, 0, 0, [1, 1, 1, 1, 1, 1, 1, 1]>, <6, 5, 6, 1, 0, 0, 0, [1, 1, 1, 1, 1, 1, 1, 1]>, <7, 6, 7, 1, 0, 0, 0, [1, 1, 1, 1, 1, 1, 1, 1]>, <8, 7, 8, 1, 0, 0, 0, [1, 1, 1, 1, 1, 1, 1, 1]>, <9, 8, 9, 1, 0, 0, 0, [1, 1, 1, 1, 1, 1, 1, 1]>, <10, 9, 10, 1, 0, 0, 0, [1, 1, 1, 1, 1, 1, 1, 1]>, <11, 10, 11, 1, 0, 0, 0, [1, 1, 1, 1, 1, 1, 1, 1]>, <12, 11, 12, 1, 0, 0, 0, [1, 1, 1, 1, 1, 1, 1, 1]>, <13, 12, 13, 1, 0, 0, 0, [1, 1, 1, 1, 1, 1, 1, 1]>, <14, 13, 14, 1, 0, 0, 0, [1, 1, 1, 1, 1, 1, 1, 1]>, <15, 14, 15, 1, 0, 0, 0, [1, 1, 1, 1, 1, 1, 1, 1]>, <16, 15, 16, 1, 0, 0, 0, [1, 1, 1, 1, 1, 1, 1, 1]>, <17, 16, 17, 1, 0, 0, 0, [1, 1, 1, 1, 1, 1, 1, 1]>, <18, 17, 18, 1, 0, 0, 0, [1, 1, 1, 1, 1, 1, 1, 1]>, <19, 18, 19, 1, 0, 0, 0, [1, 1, 1, 1, 1, 1, 1, 1]>, <20, 19, 20, 1, 0, 0, 0, [1, 1, 1, 1, 1, 1, 1, 1]>, <21, 20, 21, 1, 0, 0, 0, [1, 1, 1, 1, 1, 1, 1, 1]>, <22, 21, 22, 1, 0, 0, 0, [1, 1, 1, 1, 1, 1, 1, 1]>, <23, 22, 23, 1, 0, 0, 0, [1, 1, 1, 1, 1, 1, 1, 1]>, <24, 23, 24, 1, 0, 0, 0, [1, 1, 1, 1, 1, 1, 1, 1]>, <25, 24, 25, 1, 0, 0, 0, [1, 1, 1, 1, 1, 1, 1, 1]>, <26, 25, 26, 1, 0, 0, 0, [1, 1, 1, 1, 1, 1, 1, 1]>, <27, 26, 27, 1, 0, 0, 0, [1, 1, 1, 1, 1, 1, 1, 1]>, <28, 27, 28, 1, 0, 0, 0, [1, 1, 1, 1, 1, 1, 1, 1]>, <29, 28, 29, 1, 0, 0, 0, [1, 1, 1, 1, 1, 1, 1, 1]>, <30, 0, 15, 15, 1, 0, 0, [1, 0, 0, 0, 0, 0, 0, 1]>, <31, 1, 16, 15, 1, 0, 0, [1, 0, 0, 0, 0, 0, 0, 1]>, <32, 2, 17, 15, 1, 0, 0, [1, 0, 0, 0, 0, 0, 0, 1]>, <33, 3, 18, 15, 1, 0, 0, [1, 0, 0, 0, 0, 0, 0, 1]>, <34, 4, 19, 15, 1, 0, 0, [1, 0, 0, 0, 0, 0, 0, 1]>, <35, 5, 20, 15, 1, 0, 0, [1, 0, 0, 0, 0, 0, 0, 1]>, <36, 6, 21, 15, 1, 0, 0, [1, 0, 0, 0, 0, 0, 0, 1]>, <37, 7, 22, 15, 1, 0, 0, [1, 0, 0, 0, 0, 0, 0, 1]>, <38, 8, 23, 15, 1, 0, 0, [1, 0, 0, 0, 0, 0, 0, 1]>, <39, 9, 24, 15, 1, 0, 0, [1, 0, 0, 0, 0, 0, 0, 1]>, <40, 10, 25, 15, 1, 0, 0, [1, 0, 0, 0, 0, 0, 0, 1]>, <41, 11, 26, 15, 1, 0, 0, [1, 0, 0, 0, 0, 0, 0, 1]>, <42, 12, 27, 15, 1, 0, 0, [1, 0, 0, 0, 0, 0, 0, 1]>, <43, 13, 28, 15, 1, 0, 0, [1, 0, 0, 0, 0, 0, 0, 1]>, <44, 14, 29, 15, 1, 0, 0, [1, 0, 0, 0, 0, 0, 0, 1]>, <45, 0, 18, 18, 2, 0, 1, [0, 0, 1, 1, 0, 0, 0, 0]>, <46, 1, 19, 18, 2, 0, 1, [0, 0, 1, 1, 0, 0, 0, 0]>, <47, 2, 20, 18, 2, 0, 1, [0, 0, 1, 1, 0, 0, 0, 0]>, <48, 3, 21, 18, 2, 0, 1, [0, 0, 1, 1, 0, 0, 0, 0]>, <49, 4, 22, 18, 2, 0, 1, [0, 0, 1, 1, 0, 0, 0, 0]>, <50, 5, 23, 18, 2, 0, 1, [0, 0, 1, 1, 0, 0, 0, 0]>, <51, 6, 24, 18, 2, 0, 1, [0, 0, 1, 1, 0, 0, 0, 0]>, <52, 7, 25, 18, 2, 0, 1, [0, 0, 1, 1, 0, 0, 0, 0]>, <53, 8, 26, 18, 2, 0, 1, [0, 0, 1, 1, 0, 0, 0, 0]>, <54, 9, 27, 18, 2, 0, 1, [0, 0, 1, 1, 0, 0, 0, 0]>, <55, 10, 28, 18, 2, 0, 1, [0, 0, 1, 1, 0, 0, 0, 0]>, <56, 11, 29, 18, 2, 0, 1, [0, 0, 1, 1, 0, 0, 0, 0]>, <57, 0, 14, 14, 3, 0, 1, [1, 0, 0, 0, 0, 0, 0, 1]>, <58, 1, 15, 14, 3, 0, 1, [1, 0, 0, 0, 0, 0, 0, 1]>, <59, 2, 16, 14, 3, 0, 1, [1, 0, 0, 0, 0, 0, 0, 1]>, <60, 3, 17, 14, 3, 0, 1, [1, 0, 0, 0, 0, 0, 0, 1]>, <61, 4, 18, 14, 3, 0, 1, [1, 0, 0, 0, 0, 0, 0, 1]>, <62, 5, 19, 14, 3, 0, 1, [1, 0, 0, 0, 0, 0, 0, 1]>, <63, 6, 20, 14, 3, 0, 1, [1, 0, 0, 0, 0, 0, 0, 1]>, <64, 7, 21, 14, 3, 0, 1, [1, 0, 0, 0, 0, 0, 0, 1]>, <65, 8, 22, 14, 3, 0, 1, [1, 0, 0, 0, 0, 0, 0, 1]>, <66, 9, 23, 14, 3, 0, 1, [1, 0, 0, 0, 0, 0, 0, 1]>, <67, 10, 24, 14, 3, 0, 1, [1, 0, 0, 0, 0, 0, 0, 1]>, <68, 11, 25, 14, 3, 0, 1, [1, 0, 0, 0, 0, 0, 0, 1]>, <69, 12, 26, 14, 3, 0, 1, [1, 0, 0, 0, 0, 0, 0, 1]>, <70, 13, 27, 14, 3, 0, 1, [1, 0, 0, 0, 0, 0, 0, 1]>, <71, 14, 28, 14, 3, 0, 1, [1, 0, 0, 0, 0, 0, 0, 1]>, <72, 15, 29, 14, 3, 0, 1, [1, 0, 0, 0, 0, 0, 0, 1]>, <73, 0, 15, 15, 4, 0, 1, [1, 1, 0, 0, 0, 0, 0, 0]>, <74, 1, 16, 15, 4, 0, 1, [1, 1, 0, 0, 0, 0, 0, 0]>, <75, 2, 17, 15, 4, 0, 1, [1, 1, 0, 0, 0, 0, 0, 0]>, <76, 3, 18, 15, 4, 0, 1, [1, 1, 0, 0, 0, 0, 0, 0]>, <77, 4, 19, 15, 4, 0, 1, [1, 1, 0, 0, 0, 0, 0, 0]>, <78, 5, 20, 15, 4, 0, 1, [1, 1, 0, 0, 0, 0, 0, 0]>, <79, 6, 21, 15, 4, 0, 1, [1, 1, 0, 0, 0, 0, 0, 0]>, <80, 7, 22, 15, 4, 0, 1, [1, 1, 0, 0, 0, 0, 0, 0]>, <81, 8, 23, 15, 4, 0, 1, [1, 1, 0, 0, 0, 0, 0, 0]>, <82, 9, 24, 15, 4, 0, 1, [1, 1, 0, 0, 0, 0, 0, 0]>, <83, 10, 25, 15, 4, 0, 1, [1, 1, 0, 0, 0, 0, 0, 0]>, <84, 11, 26, 15, 4, 0, 1, [1, 1, 0, 0, 0, 0, 0, 0]>, <85, 12, 27, 15, 4, 0, 1, [1, 1, 0, 0, 0, 0, 0, 0]>, <86, 13, 28, 15, 4, 0, 1, [1, 1, 0, 0, 0, 0, 0, 0]>, <87, 14, 29, 15, 4, 0, 1, [1, 1, 0, 0, 0, 0, 0, 0]>, <88, 0, 17, 17, 5, 0, 0, [1, 0, 0, 0, 0, 0, 0, 1]>, <89, 1, 18, 17, 5, 0, 0, [1, 0, 0, 0, 0, 0, 0, 1]>, <90, 2, 19, 17, 5, 0, 0, [1, 0, 0, 0, 0, 0, 0, 1]>, <91, 3, 20, 17, 5, 0, 0, [1, 0, 0, 0, 0, 0, 0, 1]>, <92, 4, 21, 17, 5, 0, 0, [1, 0, 0, 0, 0, 0, 0, 1]>, <93, 5, 22, 17, 5, 0, 0, [1, 0, 0, 0, 0, 0, 0, 1]>, <94, 6, 23, 17, 5, 0, 0, [1, 0, 0, 0, 0, 0, 0, 1]>, <95, 7, 24, 17, 5, 0, 0, [1, 0, 0, 0, 0, 0, 0, 1]>, <96, 8, 25, 17, 5, 0, 0, [1, 0, 0, 0, 0, 0, 0, 1]>, <97, 9, 26, 17, 5, 0, 0, [1, 0, 0, 0, 0, 0, 0, 1]>, <98, 10, 27, 17, 5, 0, 0, [1, 0, 0, 0, 0, 0, 0, 1]>, <99, 11, 28, 17, 5, 0, 0, [1, 0, 0, 0, 0, 0, 0, 1]>, <100, 12, 29, 17, 5, 0, 0, [1, 0, 0, 0, 0, 0, 0, 1]>, <101, 0, 16, 16, 6, 0, 0, [0, 1, 1, 0, 0, 0, 0, 0]>, <102, 1, 17, 16, 6, 0, 0, [0, 1, 1, 0, 0, 0, 0, 0]>, <103, 2, 18, 16, 6, 0, 0, [0, 1, 1, 0, 0, 0, 0, 0]>, <104, 3, 19, 16, 6, 0, 0, [0, 1, 1, 0, 0, 0, 0, 0]>, <105, 4, 20, 16, 6, 0, 0, [0, 1, 1, 0, 0, 0, 0, 0]>, <106, 5, 21, 16, 6, 0, 0, [0, 1, 1, 0, 0, 0, 0, 0]>, <107, 6, 22, 16, 6, 0, 0, [0, 1, 1, 0, 0, 0, 0, 0]>, <108, 7, 23, 16, 6, 0, 0, [0, 1, 1, 0, 0, 0, 0, 0]>, <109, 8, 24, 16, 6, 0, 0, [0, 1, 1, 0, 0, 0, 0, 0]>, <110, 9, 25, 16, 6, 0, 0, [0, 1, 1, 0, 0, 0, 0, 0]>, <111, 10, 26, 16, 6, 0, 0, [0, 1, 1, 0, 0, 0, 0, 0]>, <112, 11, 27, 16, 6, 0, 0, [0, 1, 1, 0, 0, 0, 0, 0]>, <113, 12, 28, 16, 6, 0, 0, [0, 1, 1, 0, 0, 0, 0, 0]>, <114, 13, 29, 16, 6, 0, 0, [0, 1, 1, 0, 0, 0, 0, 0]>, <115, 0, 18, 18, 7, 0, 0, [1, 0, 0, 0, 0, 0, 0, 1]>, <116, 1, 19, 18, 7, 0, 0, [1, 0, 0, 0, 0, 0, 0, 1]>, <117, 2, 20, 18, 7, 0, 0, [1, 0, 0, 0, 0, 0, 0, 1]>, <118, 3, 21, 18, 7, 0, 0, [1, 0, 0, 0, 0, 0, 0, 1]>, <119, 4, 22, 18, 7, 0, 0, [1, 0, 0, 0, 0, 0, 0, 1]>, <120, 5, 23, 18, 7, 0, 0, [1, 0, 0, 0, 0, 0, 0, 1]>, <121, 6, 24, 18, 7, 0, 0, [1, 0, 0, 0, 0, 0, 0, 1]>, <122, 7, 25, 18, 7, 0, 0, [1, 0, 0, 0, 0, 0, 0, 1]>, <123, 8, 26, 18, 7, 0, 0, [1, 0, 0, 0, 0, 0, 0, 1]>, <124, 9, 27, 18, 7, 0, 0, [1, 0, 0, 0, 0, 0, 0, 1]>, <125, 10, 28, 18, 7, 0, 0, [1, 0, 0, 0, 0, 0, 0, 1]>, <126, 11, 29, 18, 7, 0, 0, [1, 0, 0, 0, 0, 0, 0, 1]>, <127, 0, 17, 17, 8, 0, 0, [0, 0, 0, 0, 0, 1, 1, 0]>, <128, 1, 18, 17, 8, 0, 0, [0, 0, 0, 0, 0, 1, 1, 0]>, <129, 2, 19, 17, 8, 0, 0, [0, 0, 0, 0, 0, 1, 1, 0]>, <130, 3, 20, 17, 8, 0, 0, [0, 0, 0, 0, 0, 1, 1, 0]>, <131, 4, 21, 17, 8, 0, 0, [0, 0, 0, 0, 0, 1, 1, 0]>, <132, 5, 22, 17, 8, 0, 0, [0, 0, 0, 0, 0, 1, 1, 0]>, <133, 6, 23, 17, 8, 0, 0, [0, 0, 0, 0, 0, 1, 1, 0]>, <134, 7, 24, 17, 8, 0, 0, [0, 0, 0, 0, 0, 1, 1, 0]>, <135, 8, 25, 17, 8, 0, 0, [0, 0, 0, 0, 0, 1, 1, 0]>, <136, 9, 26, 17, 8, 0, 0, [0, 0, 0, 0, 0, 1, 1, 0]>, <137, 10, 27, 17, 8, 0, 0, [0, 0, 0, 0, 0, 1, 1, 0]>, <138, 11, 28, 17, 8, 0, 0, [0, 0, 0, 0, 0, 1, 1, 0]>, <139, 12, 29, 17, 8, 0, 0, [0, 0, 0, 0, 0, 1, 1, 0]>, <140, 0, 15, 15, 9, 0, 0, [0, 0, 0, 0, 0, 1, 1, 0]>, <141, 1, 16, 15, 9, 0, 0, [0, 0, 0, 0, 0, 1, 1, 0]>, <142, 2, 17, 15, 9, 0, 0, [0, 0, 0, 0, 0, 1, 1, 0]>, <143, 3, 18, 15, 9, 0, 0, [0, 0, 0, 0, 0, 1, 1, 0]>, <144, 4, 19, 15, 9, 0, 0, [0, 0, 0, 0, 0, 1, 1, 0]>, <145, 5, 20, 15, 9, 0, 0, [0, 0, 0, 0, 0, 1, 1, 0]>, <146, 6, 21, 15, 9, 0, 0, [0, 0, 0, 0, 0, 1, 1, 0]>, <147, 7, 22, 15, 9, 0, 0, [0, 0, 0, 0, 0, 1, 1, 0]>, <148, 8, 23, 15, 9, 0, 0, [0, 0, 0, 0, 0, 1, 1, 0]>, <149, 9, 24, 15, 9, 0, 0, [0, 0, 0, 0, 0, 1, 1, 0]>, <150, 10, 25, 15, 9, 0, 0, [0, 0, 0, 0, 0, 1, 1, 0]>, <151, 11, 26, 15, 9, 0, 0, [0, 0, 0, 0, 0, 1, 1, 0]>, <152, 12, 27, 15, 9, 0, 0, [0, 0, 0, 0, 0, 1, 1, 0]>, <153, 13, 28, 15, 9, 0, 0, [0, 0, 0, 0, 0, 1, 1, 0]>, <154, 14, 29, 15, 9, 0, 0, [0, 0, 0, 0, 0, 1, 1, 0]>, <155, 0, 14, 14, 10, 0, 1, [1, 0, 0, 0, 0, 0, 0, 1]>, <156, 1, 15, 14, 10, 0, 1, [1, 0, 0, 0, 0, 0, 0, 1]>, <157, 2, 16, 14, 10, 0, 1, [1, 0, 0, 0, 0, 0, 0, 1]>, <158, 3, 17, 14, 10, 0, 1, [1, 0, 0, 0, 0, 0, 0, 1]>, <159, 4, 18, 14, 10, 0, 1, [1, 0, 0, 0, 0, 0, 0, 1]>, <160, 5, 19, 14, 10, 0, 1, [1, 0, 0, 0, 0, 0, 0, 1]>, <161, 6, 20, 14, 10, 0, 1, [1, 0, 0, 0, 0, 0, 0, 1]>, <162, 7, 21, 14, 10, 0, 1, [1, 0, 0, 0, 0, 0, 0, 1]>, <163, 8, 22, 14, 10, 0, 1, [1, 0, 0, 0, 0, 0, 0, 1]>, <164, 9, 23, 14, 10, 0, 1, [1, 0, 0, 0, 0, 0, 0, 1]>, <165, 10, 24, 14, 10, 0, 1, [1, 0, 0, 0, 0, 0, 0, 1]>, <166, 11, 25, 14, 10, 0, 1, [1, 0, 0, 0, 0, 0, 0, 1]>, <167, 12, 26, 14, 10, 0, 1, [1, 0, 0, 0, 0, 0, 0, 1]>, <168, 13, 27, 14, 10, 0, 1, [1, 0, 0, 0, 0, 0, 0, 1]>, <169, 14, 28, 14, 10, 0, 1, [1, 0, 0, 0, 0, 0, 0, 1]>, <170, 15, 29, 14, 10, 0, 1, [1, 0, 0, 0, 0, 0, 0, 1]>, <171, 0, 17, 17, 11, 0, 0, [0, 0, 1, 1, 0, 0, 0, 0]>, <172, 1, 18, 17, 11, 0, 0, [0, 0, 1, 1, 0, 0, 0, 0]>, <173, 2, 19, 17, 11, 0, 0, [0, 0, 1, 1, 0, 0, 0, 0]>, <174, 3, 20, 17, 11, 0, 0, [0, 0, 1, 1, 0, 0, 0, 0]>, <175, 4, 21, 17, 11, 0, 0, [0, 0, 1, 1, 0, 0, 0, 0]>, <176, 5, 22, 17, 11, 0, 0, [0, 0, 1, 1, 0, 0, 0, 0]>, <177, 6, 23, 17, 11, 0, 0, [0, 0, 1, 1, 0, 0, 0, 0]>, <178, 7, 24, 17, 11, 0, 0, [0, 0, 1, 1, 0, 0, 0, 0]>, <179, 8, 25, 17, 11, 0, 0, [0, 0, 1, 1, 0, 0, 0, 0]>, <180, 9, 26, 17, 11, 0, 0, [0, 0, 1, 1, 0, 0, 0, 0]>, <181, 10, 27, 17, 11, 0, 0, [0, 0, 1, 1, 0, 0, 0, 0]>, <182, 11, 28, 17, 11, 0, 0, [0, 0, 1, 1, 0, 0, 0, 0]>, <183, 12, 29, 17, 11, 0, 0, [0, 0, 1, 1, 0, 0, 0, 0]>, <184, 0, 17, 17, 12, 0, 0, [0, 1, 1, 0, 0, 0, 0, 0]>, <185, 1, 18, 17, 12, 0, 0, [0, 1, 1, 0, 0, 0, 0, 0]>, <186, 2, 19, 17, 12, 0, 0, [0, 1, 1, 0, 0, 0, 0, 0]>, <187, 3, 20, 17, 12, 0, 0, [0, 1, 1, 0, 0, 0, 0, 0]>, <188, 4, 21, 17, 12, 0, 0, [0, 1, 1, 0, 0, 0, 0, 0]>, <189, 5, 22, 17, 12, 0, 0, [0, 1, 1, 0, 0, 0, 0, 0]>, <190, 6, 23, 17, 12, 0, 0, [0, 1, 1, 0, 0, 0, 0, 0]>, <191, 7, 24, 17, 12, 0, 0, [0, 1, 1, 0, 0, 0, 0, 0]>, <192, 8, 25, 17, 12, 0, 0, [0, 1, 1, 0, 0, 0, 0, 0]>, <193, 9, 26, 17, 12, 0, 0, [0, 1, 1, 0, 0, 0, 0, 0]>, <194, 10, 27, 17, 12, 0, 0, [0, 1, 1, 0, 0, 0, 0, 0]>, <195, 11, 28, 17, 12, 0, 0, [0, 1, 1, 0, 0, 0, 0, 0]>, <196, 12, 29, 17, 12, 0, 0, [0, 1, 1, 0, 0, 0, 0, 0]>, <197, 0, 13, 13, 13, 0, 0, [0, 0, 0, 0, 1, 1, 0, 0]>, <198, 1, 14, 13, 13, 0, 0, [0, 0, 0, 0, 1, 1, 0, 0]>, <199, 2, 15, 13, 13, 0, 0, [0, 0, 0, 0, 1, 1, 0, 0]>, <200, 3, 16, 13, 13, 0, 0, [0, 0, 0, 0, 1, 1, 0, 0]>, <201, 4, 17, 13, 13, 0, 0, [0, 0, 0, 0, 1, 1, 0, 0]>, <202, 5, 18, 13, 13, 0, 0, [0, 0, 0, 0, 1, 1, 0, 0]>, <203, 7, 20, 13, 13, 0, 0, [0, 0, 0, 0, 1, 1, 0, 0]>, <204, 8, 21, 13, 13, 0, 0, [0, 0, 0, 0, 1, 1, 0, 0]>, <205, 9, 22, 13, 13, 0, 0, [0, 0, 0, 0, 1, 1, 0, 0]>, <206, 10, 23, 13, 13, 0, 0, [0, 0, 0, 0, 1, 1, 0, 0]>, <207, 11, 24, 13, 13, 0, 0, [0, 0, 0, 0, 1, 1, 0, 0]>, <208, 12, 25, 13, 13, 0, 0, [0, 0, 0, 0, 1, 1, 0, 0]>, <209, 13, 26, 13, 13, 0, 0, [0, 0, 0, 0, 1, 1, 0, 0]>, <210, 14, 27, 13, 13, 0, 0, [0, 0, 0, 0, 1, 1, 0, 0]>, <211, 15, 28, 13, 13, 0, 0, [0, 0, 0, 0, 1, 1, 0, 0]>, <212, 16, 29, 13, 13, 0, 0, [0, 0, 0, 0, 1, 1, 0, 0]>, <213, 0, 15, 15, 14, 0, 0, [0, 0, 0, 0, 0, 1, 1, 0]>, <214, 1, 16, 15, 14, 0, 0, [0, 0, 0, 0, 0, 1, 1, 0]>, <215, 2, 17, 15, 14, 0, 0, [0, 0, 0, 0, 0, 1, 1, 0]>, <216, 3, 18, 15, 14, 0, 0, [0, 0, 0, 0, 0, 1, 1, 0]>, <217, 4, 19, 15, 14, 0, 0, [0, 0, 0, 0, 0, 1, 1, 0]>, <218, 5, 20, 15, 14, 0, 0, [0, 0, 0, 0, 0, 1, 1, 0]>, <219, 6, 21, 15, 14, 0, 0, [0, 0, 0, 0, 0, 1, 1, 0]>, <220, 7, 22, 15, 14, 0, 0, [0, 0, 0, 0, 0, 1, 1, 0]>, <221, 8, 23, 15, 14, 0, 0, [0, 0, 0, 0, 0, 1, 1, 0]>, <222, 9, 24, 15, 14, 0, 0, [0, 0, 0, 0, 0, 1, 1, 0]>, <223, 10, 25, 15, 14, 0, 0, [0, 0, 0, 0, 0, 1, 1, 0]>, <224, 11, 26, 15, 14, 0, 0, [0, 0, 0, 0, 0, 1, 1, 0]>, <225, 12, 27, 15, 14, 0, 0, [0, 0, 0, 0, 0, 1, 1, 0]>, <226, 13, 28, 15, 14, 0, 0, [0, 0, 0, 0, 0, 1, 1, 0]>, <227, 14, 29, 15, 14, 0, 0, [0, 0, 0, 0, 0, 1, 1, 0]>, <228, 0, 14, 14, 15, 0, 0, [0, 0, 0, 1, 1, 0, 0, 0]>, <229, 1, 15, 14, 15, 0, 0, [0, 0, 0, 1, 1, 0, 0, 0]>, <230, 2, 16, 14, 15, 0, 0, [0, 0, 0, 1, 1, 0, 0, 0]>, <231, 3, 17, 14, 15, 0, 0, [0, 0, 0, 1, 1, 0, 0, 0]>, <232, 4, 18, 14, 15, 0, 0, [0, 0, 0, 1, 1, 0, 0, 0]>, <233, 5, 19, 14, 15, 0, 0, [0, 0, 0, 1, 1, 0, 0, 0]>, <234, 6, 20, 14, 15, 0, 0, [0, 0, 0, 1, 1, 0, 0, 0]>, <235, 7, 21, 14, 15, 0, 0, [0, 0, 0, 1, 1, 0, 0, 0]>, <236, 8, 22, 14, 15, 0, 0, [0, 0, 0, 1, 1, 0, 0, 0]>, <237, 9, 23, 14, 15, 0, 0, [0, 0, 0, 1, 1, 0, 0, 0]>, <238, 10, 24, 14, 15, 0, 0, [0, 0, 0, 1, 1, 0, 0, 0]>, <239, 11, 25, 14, 15, 0, 0, [0, 0, 0, 1, 1, 0, 0, 0]>, <240, 12, 26, 14, 15, 0, 0, [0, 0, 0, 1, 1, 0, 0, 0]>, <241, 13, 27, 14, 15, 0, 0, [0, 0, 0, 1, 1, 0, 0, 0]>, <242, 14, 28, 14, 15, 0, 0, [0, 0, 0, 1, 1, 0, 0, 0]>, <243, 15, 29, 14, 15, 0, 0, [0, 0, 0, 1, 1, 0, 0, 0]>, <244, 0, 15, 15, 16, 0, 1, [0, 0, 0, 0, 0, 0, 1, 1]>, <245, 1, 16, 15, 16, 0, 1, [0, 0, 0, 0, 0, 0, 1, 1]>, <246, 2, 17, 15, 16, 0, 1, [0, 0, 0, 0, 0, 0, 1, 1]>, <247, 3, 18, 15, 16, 0, 1, [0, 0, 0, 0, 0, 0, 1, 1]>, <248, 4, 19, 15, 16, 0, 1, [0, 0, 0, 0, 0, 0, 1, 1]>, <249, 5, 20, 15, 16, 0, 1, [0, 0, 0, 0, 0, 0, 1, 1]>, <250, 6, 21, 15, 16, 0, 1, [0, 0, 0, 0, 0, 0, 1, 1]>, <251, 7, 22, 15, 16, 0, 1, [0, 0, 0, 0, 0, 0, 1, 1]>, <252, 8, 23, 15, 16, 0, 1, [0, 0, 0, 0, 0, 0, 1, 1]>, <253, 9, 24, 15, 16, 0, 1, [0, 0, 0, 0, 0, 0, 1, 1]>, <254, 10, 25, 15, 16, 0, 1, [0, 0, 0, 0, 0, 0, 1, 1]>, <255, 11, 26, 15, 16, 0, 1, [0, 0, 0, 0, 0, 0, 1, 1]>, <256, 12, 27, 15, 16, 0, 1, [0, 0, 0, 0, 0, 0, 1, 1]>, <257, 13, 28, 15, 16, 0, 1, [0, 0, 0, 0, 0, 0, 1, 1]>, <258, 14, 29, 15, 16, 0, 1, [0, 0, 0, 0, 0, 0, 1, 1]>, <259, 0, 17, 17, 17, 0, 0, [0, 0, 1, 1, 0, 0, 0, 0]>, <260, 1, 18, 17, 17, 0, 0, [0, 0, 1, 1, 0, 0, 0, 0]>, <261, 2, 19, 17, 17, 0, 0, [0, 0, 1, 1, 0, 0, 0, 0]>, <262, 3, 20, 17, 17, 0, 0, [0, 0, 1, 1, 0, 0, 0, 0]>, <263, 4, 21, 17, 17, 0, 0, [0, 0, 1, 1, 0, 0, 0, 0]>, <264, 5, 22, 17, 17, 0, 0, [0, 0, 1, 1, 0, 0, 0, 0]>, <265, 6, 23, 17, 17, 0, 0, [0, 0, 1, 1, 0, 0, 0, 0]>, <266, 7, 24, 17, 17, 0, 0, [0, 0, 1, 1, 0, 0, 0, 0]>, <267, 8, 25, 17, 17, 0, 0, [0, 0, 1, 1, 0, 0, 0, 0]>, <268, 9, 26, 17, 17, 0, 0, [0, 0, 1, 1, 0, 0, 0, 0]>, <269, 10, 27, 17, 17, 0, 0, [0, 0, 1, 1, 0, 0, 0, 0]>, <270, 11, 28, 17, 17, 0, 0, [0, 0, 1, 1, 0, 0, 0, 0]>, <271, 12, 29, 17, 17, 0, 0, [0, 0, 1, 1, 0, 0, 0, 0]>, <272, 0, 16, 16, 18, 0, 1, [0, 0, 0, 0, 1, 1, 0, 0]>, <273, 1, 17, 16, 18, 0, 1, [0, 0, 0, 0, 1, 1, 0, 0]>, <274, 2, 18, 16, 18, 0, 1, [0, 0, 0, 0, 1, 1, 0, 0]>, <275, 3, 19, 16, 18, 0, 1, [0, 0, 0, 0, 1, 1, 0, 0]>, <276, 4, 20, 16, 18, 0, 1, [0, 0, 0, 0, 1, 1, 0, 0]>, <277, 5, 21, 16, 18, 0, 1, [0, 0, 0, 0, 1, 1, 0, 0]>, <278, 6, 22, 16, 18, 0, 1, [0, 0, 0, 0, 1, 1, 0, 0]>, <279, 7, 23, 16, 18, 0, 1, [0, 0, 0, 0, 1, 1, 0, 0]>, <280, 8, 24, 16, 18, 0, 1, [0, 0, 0, 0, 1, 1, 0, 0]>, <281, 9, 25, 16, 18, 0, 1, [0, 0, 0, 0, 1, 1, 0, 0]>, <282, 10, 26, 16, 18, 0, 1, [0, 0, 0, 0, 1, 1, 0, 0]>, <283, 11, 27, 16, 18, 0, 1, [0, 0, 0, 0, 1, 1, 0, 0]>, <284, 12, 28, 16, 18, 0, 1, [0, 0, 0, 0, 1, 1, 0, 0]>, <285, 13, 29, 16, 18, 0, 1, [0, 0, 0, 0, 1, 1, 0, 0]>, <286, 0, 16, 16, 19, 1, 0, [0, 0, 0, 1, 1, 0, 0, 0]>, <287, 1, 17, 16, 19, 1, 0, [0, 0, 0, 1, 1, 0, 0, 0]>, <288, 2, 18, 16, 19, 1, 0, [0, 0, 0, 1, 1, 0, 0, 0]>, <289, 3, 19, 16, 19, 1, 0, [0, 0, 0, 1, 1, 0, 0, 0]>, <290, 4, 20, 16, 19, 1, 0, [0, 0, 0, 1, 1, 0, 0, 0]>, <291, 5, 21, 16, 19, 1, 0, [0, 0, 0, 1, 1, 0, 0, 0]>, <292, 6, 22, 16, 19, 1, 0, [0, 0, 0, 1, 1, 0, 0, 0]>, <293, 7, 23, 16, 19, 1, 0, [0, 0, 0, 1, 1, 0, 0, 0]>, <294, 8, 24, 16, 19, 1, 0, [0, 0, 0, 1, 1, 0, 0, 0]>, <295, 9, 25, 16, 19, 1, 0, [0, 0, 0, 1, 1, 0, 0, 0]>, <296, 10, 26, 16, 19, 1, 0, [0, 0, 0, 1, 1, 0, 0, 0]>, <297, 11, 27, 16, 19, 1, 0, [0, 0, 0, 1, 1, 0, 0, 0]>, <298, 12, 28, 16, 19, 1, 0, [0, 0, 0, 1, 1, 0, 0, 0]>, <299, 13, 29, 16, 19, 1, 0, [0, 0, 0, 1, 1, 0, 0, 0]>, <300, 0, 15, 15, 20, 0, 0, [0, 0, 0, 0, 0, 0, 1, 1]>, <301, 1, 16, 15, 20, 0, 0, [0, 0, 0, 0, 0, 0, 1, 1]>, <302, 2, 17, 15, 20, 0, 0, [0, 0, 0, 0, 0, 0, 1, 1]>, <303, 3, 18, 15, 20, 0, 0, [0, 0, 0, 0, 0, 0, 1, 1]>, <304, 4, 19, 15, 20, 0, 0, [0, 0, 0, 0, 0, 0, 1, 1]>, <305, 5, 20, 15, 20, 0, 0, [0, 0, 0, 0, 0, 0, 1, 1]>, <306, 6, 21, 15, 20, 0, 0, [0, 0, 0, 0, 0, 0, 1, 1]>, <307, 7, 22, 15, 20, 0, 0, [0, 0, 0, 0, 0, 0, 1, 1]>, <308, 8, 23, 15, 20, 0, 0, [0, 0, 0, 0, 0, 0, 1, 1]>, <309, 9, 24, 15, 20, 0, 0, [0, 0, 0, 0, 0, 0, 1, 1]>, <310, 10, 25, 15, 20, 0, 0, [0, 0, 0, 0, 0, 0, 1, 1]>, <311, 11, 26, 15, 20, 0, 0, [0, 0, 0, 0, 0, 0, 1, 1]>, <312, 12, 27, 15, 20, 0, 0, [0, 0, 0, 0, 0, 0, 1, 1]>, <313, 13, 28, 15, 20, 0, 0, [0, 0, 0, 0, 0, 0, 1, 1]>, <314, 14, 29, 15, 20, 0, 0, [0, 0, 0, 0, 0, 0, 1, 1]>, <315, 0, 17, 17, 21, 0, 0, [0, 0, 0, 0, 1, 1, 0, 0]>, <316, 1, 18, 17, 21, 0, 0, [0, 0, 0, 0, 1, 1, 0, 0]>, <317, 2, 19, 17, 21, 0, 0, [0, 0, 0, 0, 1, 1, 0, 0]>, <318, 3, 20, 17, 21, 0, 0, [0, 0, 0, 0, 1, 1, 0, 0]>, <319, 4, 21, 17, 21, 0, 0, [0, 0, 0, 0, 1, 1, 0, 0]>, <320, 5, 22, 17, 21, 0, 0, [0, 0, 0, 0, 1, 1, 0, 0]>, <321, 6, 23, 17, 21, 0, 0, [0, 0, 0, 0, 1, 1, 0, 0]>, <322, 7, 24, 17, 21, 0, 0, [0, 0, 0, 0, 1, 1, 0, 0]>, <323, 8, 25, 17, 21, 0, 0, [0, 0, 0, 0, 1, 1, 0, 0]>, <324, 9, 26, 17, 21, 0, 0, [0, 0, 0, 0, 1, 1, 0, 0]>, <325, 10, 27, 17, 21, 0, 0, [0, 0, 0, 0, 1, 1, 0, 0]>, <326, 11, 28, 17, 21, 0, 0, [0, 0, 0, 0, 1, 1, 0, 0]>, <327, 12, 29, 17, 21, 0, 0, [0, 0, 0, 0, 1, 1, 0, 0]>};
